1 10 30
4139
  4.0  0.31  45.9 1530.2   0.0
 0.21 408.1  69.8
 0.31 600.9 102.8
 0.43 846.1 144.7
 0.27 529.8  90.6
 0.31 599.8 102.6
 0.38 745.2 127.4
 0.38 737.1 126.0
 0.39 754.7 129.0
 0.42 820.1 140.2
 0.43 831.4 142.2
  684
 1428
 1278
  963
 1435
 1375
  568
 1371
 1104
  655
 1470
  981
 1120
  848
 1381
  961
  691
 1155
 1088
 1453
  929
  839
  769
  925
  969
  926
  992
  977
  848
  774
